Read MPS format model from file dat/rmp/4node_1024_10.mps
Reading time = 0.03 seconds
: 1084 rows, 3212 columns, 93840 nonzeros
Gurobi Optimizer version 9.0.0 build v9.0.0rc2 (linux64)
Optimize a model with 1084 rows, 3212 columns and 93840 nonzeros
Model fingerprint: 0x689b42c2
Coefficient statistics:
  Matrix range     [6e-03, 3e+01]
  Objective range  [2e+01, 1e+04]
  Bounds range     [0e+00, 0e+00]
  RHS range        [1e+00, 8e+01]
Ordering time: 0.00s

Barrier statistics:
 AA' NZ     : 4.682e+04
 Factor NZ  : 5.860e+04 (roughly 2 MBytes of memory)
 Factor Ops : 3.668e+06 (less than 1 second per iteration)
 Threads    : 1

                  Objective                Residual
Iter       Primal          Dual         Primal    Dual     Compl     Time
   0   1.55806524e+07  0.00000000e+00  7.47e+03 2.40e+02  4.64e+04     0s
   1   1.72414859e+06 -4.14321593e+06  7.86e+02 3.27e+03  7.11e+03     0s
   2   2.75593448e+05 -3.73441214e+06  6.29e+01 2.63e+03  3.32e+03     0s
   3   6.88483044e+04 -5.01132058e+05  3.37e+00 3.11e+02  4.07e+02     0s
   4   4.28771348e+04 -5.16824178e+04  9.32e-02 3.58e+01  5.30e+01     0s
   5   7.97757959e+03 -9.88425293e+03  4.85e-11 4.21e+00  7.48e+00     0s
   6   1.00418284e+03 -4.17554139e+03  1.07e-11 6.30e-01  1.88e+00     0s
   7   2.69550777e+02 -2.52469402e+03  9.26e-12 1.42e-01  9.26e-01     0s
   8   1.86851049e+02 -1.23496438e+03  5.72e-11 1.91e-02  4.52e-01     0s
   9  -2.46399186e+02 -4.54168889e+02  9.42e-10 6.26e-04  6.51e-02     0s
  10  -3.11469588e+02 -3.87130172e+02  1.81e-09 2.95e-05  2.36e-02     0s
  11  -3.24249525e+02 -3.66866390e+02  6.29e-08 1.81e-05  1.33e-02     0s
  12  -3.29483952e+02 -3.46940611e+02  9.71e-08 3.39e-06  5.44e-03     0s
  13  -3.38189987e+02 -3.42270100e+02  2.05e-07 1.16e-07  1.27e-03     0s
  14  -3.40430414e+02 -3.42304477e+02  6.06e-07 5.97e-09  5.84e-04     0s
  15  -3.41521186e+02 -3.41677090e+02  2.89e-08 3.08e-09  4.85e-05     0s
  16  -3.41521226e+02 -3.41673074e+02  2.95e-07 2.78e-09  4.73e-05     0s
  17  -3.41521260e+02 -3.41662690e+02  6.54e-07 1.60e-09  4.40e-05     0s
  18  -3.41521356e+02 -3.41657790e+02  1.50e-06 1.26e-09  4.25e-05     0s
  19  -3.41521434e+02 -3.41655027e+02  1.85e-06 5.12e-10  4.16e-05     0s
  20  -3.41521457e+02 -3.41652468e+02  1.98e-06 4.32e-10  4.08e-05     0s
  21  -3.41521918e+02 -3.41644398e+02  4.25e-06 2.14e-10  3.81e-05     0s
  22  -3.41522370e+02 -3.41640674e+02  6.28e-06 1.22e-10  3.68e-05     0s
  23  -3.41523167e+02 -3.41639826e+02  1.10e-05 5.53e-11  3.64e-05     0s
  24  -3.41524737e+02 -3.41639396e+02  1.74e-05 1.94e-10  3.57e-05     0s
  25  -3.41524683e+02 -3.41639478e+02  3.27e-05 3.26e-10  3.57e-05     0s
  26  -3.41524703e+02 -3.41639394e+02  3.13e-05 1.65e-10  3.57e-05     0s
  27  -3.41524433e+02 -3.41638734e+02  4.63e-05 1.40e-10  3.53e-05     0s
  28  -3.41529871e+02 -3.41638736e+02  6.63e-05 6.43e-11  3.40e-05     0s
  29  -3.41537554e+02 -3.41639394e+02  9.11e-05 2.91e-11  3.20e-05     0s
  30  -3.41544518e+02 -3.41638604e+02  9.96e-05 1.05e-10  3.06e-05     0s
  31  -3.41557724e+02 -3.41639303e+02  1.32e-04 1.46e-11  2.67e-05     0s
  32  -3.41558412e+02 -3.41638446e+02  2.34e-04 1.46e-11  2.55e-05     0s
  33  -3.41571552e+02 -3.41637523e+02  2.00e-04 2.91e-11  1.93e-05     0s
  34  -3.41603890e+02 -3.41637393e+02  3.10e-04 2.91e-11  9.95e-06     0s
  35  -3.41643475e+02 -3.41637313e+02  4.95e-04 1.46e-11  5.11e-07     0s
  36  -3.41650170e+02 -3.41636338e+02  3.95e-04 1.46e-11  4.63e-07     0s
  37  -3.41650174e+02 -3.41636091e+02  3.97e-04 1.46e-11  4.37e-07     0s
  38  -3.41657486e+02 -3.41635778e+02  6.28e-04 2.91e-11  9.15e-08     0s
  39  -3.41632579e+02 -3.41635804e+02  5.47e-04 1.46e-11  2.25e-08     0s
  40  -3.41630343e+02 -3.41635964e+02  3.26e-04 1.46e-11  4.11e-08     0s
  41  -3.41660933e+02 -3.41635930e+02  6.20e-04 2.91e-11  1.75e-08     0s
  42  -3.41630097e+02 -3.41636047e+02  4.90e-04 1.46e-11  1.99e-08     0s
  43  -3.41629843e+02 -3.41635532e+02  4.25e-04 2.91e-11  1.26e-08     0s
  44  -3.41613770e+02 -3.41635668e+02  4.68e-04 2.91e-11  7.81e-09     0s
  45  -3.41613816e+02 -3.41635662e+02  4.67e-04 2.91e-11  7.87e-09     0s
  46  -3.41614946e+02 -3.41635665e+02  4.68e-04 2.91e-11  7.67e-09     0s
  47  -3.41623846e+02 -3.41635165e+02  4.55e-04 2.91e-11  4.48e-09     0s
  48  -3.41649527e+02 -3.41635266e+02  6.61e-04 2.91e-11  1.05e-09     0s
  49  -3.41643009e+02 -3.41635251e+02  6.20e-04 2.91e-11  2.33e-10     0s
  50  -3.41672015e+02 -3.41635536e+02  7.65e-04 2.91e-11  3.64e-09     0s
  51  -3.41670302e+02 -3.41635527e+02  6.81e-04 2.91e-11  2.76e-09     0s
  52  -3.41637975e+02 -3.41635333e+02  6.99e-04 1.46e-11  8.04e-09     0s
  53  -3.41659699e+02 -3.41635348e+02  4.07e-04 1.31e-10  1.71e-08     0s

Barrier performed 53 iterations in 0.31 seconds
Sub-optimal termination - objective -3.41521186e+02

Solve time: 0.305720815
Barrier iterations: 53
